ITEM = _(1..35);
knapsack_n = 3;
capacities = [211, 217, 187];
profits = [158, 163, 28, 74, 56, 20, 350, 372, 335, 139, 214, 16, 9, 13, 13, 89, 154, 361, 70, 10, 419, 434, 110, 252, 491, 38, 38, 112, 10, 29, 35, 423, 68, 169, 407];
weights = [35, 20, 7, 28, 21, 6, 47, 66, 36, 29, 58, 9, 12, 8, 10, 35, 17, 73, 21, 10, 48, 59, 19, 74, 90, 12, 6, 32, 7, 12, 5, 56, 15, 31, 70];
